W=9;
H=5;

MAX_TIME=29;
MAX_TRACKS=11;

TARGET=(3,9);

TRAINS=[(1,1,RIGHT),(1,8,DOWN)];
DECOYS=[];

INIT_POS=[
(1,1,STRAIGHT_RL),
(1,3,STRAIGHT_RL),
(1,4,STRAIGHT_RL),
(1,5,CORNER_DL),
(1,8,STRAIGHT_TD),
(2,5,STRAIGHT_TD),
(3,5,STRAIGHT_TD),
(3,9,STRAIGHT_RL),
(4,5,STRAIGHT_TD),
(5,5,DSWITCH_L_R_T),
(5,6,STRAIGHT_RL),
(5,7,STRAIGHT_RL),
];
TUNNEL_PAIRS=[];

GATES=[
(1,4,2,false),
(5,6,1,true),
];
ACTIVATIONS=[
(1,3,1),
(1,5,1),
(4,5,2),
(5,7,2),
];

DSWITCHES=[
(5,5,2),
];
STATIONS=[];

SEMAPHORE_SUPPLY=0;
